
  22   10
  10   10   10   10   10   10   10   10   10   10

   0   0   0   0   0   0   0   0   0   0   0   3 2 3 11 
   8   0   0   0   0   0   0   0  10   0   0   3 10 7 4 
   5   0   0   0   0   0  10   0   0   0   0   3 8 7 5 
  10   0  10   0   0   0   0   0   0   0   0   1 6 
   3   0   0   0   0   0   0   0  10   0   0   4 15 12 10 9 
  10   0  10   0   0   0   0   0   0   0   0   3 15 12 8 
   4   0   0  10   0   0   0   0   0   0   0   2 15 9 
   5   0   0   0   0  10   0   0   0   0   0   1 9 
   5   0   0   0   0   0   0   0   0  10   0   2 14 13 
   5   0   0   0   0   0  10   0   0   0   0   2 14 13 
   8  10   0   0   0   0   0   0   0   0   0   1 12 
   9   0   0   0   0  10   0   0   0   0   0   1 13 
  10   0   0  10   0   0   0   0   0   0   0   1 16 
   9   0   0  10   0   0   0   0   0   0   0   1 16 
   9   0   0   0   0   0   0   0  10   0   0   1 16 
   7   0   0   0   0   0   0   0   0  10   0   2 19 17 
   8   0   0   0   0   0   0   0   0  10   0   2 20 18 
   9   0   0   0   0   0   0   0  10   0   0   1 21 
   1   0   0   0   0   0   0   0   0  10   0   1 20 
   4   0   0   0   0   0   0   0   0   0  10   1 22
  10   0   0   0   0   0   0   0  10   0   0   1 22
   0   0   0   0   0   0   0   0   0   0   0   0 
